p edges 583 1562
e 1 7
e 1 8
e 1 111
e 1 112
e 1 205
e 1 206
e 1 207
e 1 270
e 1 369
e 1 443
e 1 518
e 1 526
e 1 548
e 1 565
e 2 9
e 2 10
e 2 11
e 2 12
e 2 13
e 2 213
e 2 538
e 2 550
e 2 566
e 3 20
e 3 21
e 3 22
e 3 23
e 3 82
e 3 123
e 3 221
e 3 222
e 3 223
e 3 290
e 3 428
e 3 521
e 3 522
e 3 536
e 3 552
e 3 580
e 4 39
e 4 189
e 4 237
e 4 238
e 4 239
e 4 240
e 4 305
e 4 306
e 4 307
e 4 350
e 4 351
e 4 403
e 4 404
e 4 405
e 4 434
e 4 464
e 4 497
e 4 498
e 4 500
e 4 502
e 4 541
e 5 55
e 5 56
e 5 57
e 5 58
e 5 103
e 5 104
e 5 149
e 5 150
e 5 151
e 5 152
e 5 258
e 5 318
e 5 415
e 5 441
e 5 475
e 5 476
e 5 477
e 5 512
e 5 525
e 5 534
e 5 562
e 6 59
e 6 60
e 6 61
e 6 62
e 6 259
e 6 260
e 6 261
e 6 365
e 6 544
e 6 556
e 6 563
e 6 579
e 7 8
e 8 111
e 8 369
e 8 548
e 9 10
e 9 11
e 9 12
e 9 13
e 9 55
e 9 59
e 9 538
e 10 11
e 10 12
e 10 13
e 10 21
e 10 35
e 10 56
e 11 12
e 11 13
e 11 61
e 11 566
e 12 13
e 12 22
e 12 57
e 13 23
e 13 36
e 13 58
e 13 62
e 14 62
e 14 79
e 14 167
e 14 328
e 15 16
e 15 383
e 16 286
e 16 331
e 17 18
e 17 19
e 17 60
e 17 169
e 18 19
e 18 119
e 18 385
e 18 427
e 18 520
e 19 62
e 19 122
e 19 170
e 19 289
e 19 386
e 19 456
e 20 21
e 20 22
e 20 23
e 20 60
e 20 123
e 20 552
e 21 22
e 21 23
e 21 222
e 21 428
e 21 521
e 22 23
e 23 62
e 23 223
e 23 536
e 23 580
e 24 25
e 24 60
e 24 83
e 24 291
e 24 515
e 24 553
e 25 61
e 25 292
e 25 334
e 25 568
e 26 61
e 26 86
e 26 336
e 27 28
e 27 29
e 27 176
e 27 297
e 28 29
e 28 126
e 28 225
e 29 127
e 29 226
e 29 391
e 29 429
e 29 485
e 29 507
e 30 31
e 30 130
e 30 229
e 30 341
e 30 486
e 30 577
e 31 87
e 31 179
e 31 430
e 31 460
e 32 33
e 32 34
e 32 89
e 32 131
e 32 393
e 32 461
e 33 34
e 33 61
e 33 182
e 33 343
e 33 394
e 34 90
e 34 230
e 34 432
e 35 36
e 35 132
e 35 232
e 36 62
e 36 133
e 37 186
e 37 300
e 37 397
e 37 487
e 38 62
e 38 137
e 38 188
e 38 402
e 39 238
e 39 351
e 39 434
e 39 498
e 40 241
e 40 308
e 41 42
e 41 93
e 41 194
e 41 245
e 41 408
e 41 436
e 42 94
e 42 140
e 42 246
e 42 356
e 43 44
e 43 45
e 43 46
e 43 47
e 43 247
e 43 357
e 43 409
e 43 467
e 44 45
e 44 46
e 44 47
e 44 248
e 44 410
e 44 468
e 44 499
e 45 46
e 45 47
e 45 142
e 45 469
e 46 47
e 46 249
e 47 143
e 47 411
e 47 437
e 47 490
e 47 505
e 48 49
e 48 50
e 48 95
e 48 197
e 48 250
e 48 438
e 48 491
e 49 50
e 49 145
e 49 473
e 50 97
e 50 254
e 50 360
e 51 52
e 51 53
e 51 100
e 51 147
e 51 200
e 52 53
e 52 313
e 52 361
e 52 439
e 52 504
e 52 571
e 53 148
e 53 493
e 54 62
e 54 102
e 54 582
e 55 56
e 55 57
e 55 58
e 55 59
e 55 103
e 55 441
e 55 512
e 56 57
e 56 58
e 56 562
e 57 58
e 57 151
e 57 477
e 57 534
e 58 62
e 58 104
e 58 152
e 58 318
e 58 415
e 59 60
e 59 61
e 59 62
e 59 544
e 60 61
e 60 62
e 60 68
e 60 259
e 60 556
e 61 62
e 61 260
e 61 365
e 62 71
e 62 261
e 63 64
e 63 65
e 63 319
e 63 366
e 63 442
e 63 478
e 63 545
e 64 65
e 64 105
e 64 262
e 64 367
e 64 557
e 65 106
e 65 263
e 65 494
e 65 564
e 66 67
e 66 202
e 66 495
e 66 546
e 67 154
e 67 267
e 67 417
e 67 480
e 67 496
e 67 583
e 68 69
e 68 70
e 68 71
e 68 155
e 69 70
e 69 71
e 69 110
e 69 203
e 69 419
e 70 71
e 70 421
e 71 204
e 71 269
e 72 73
e 72 444
e 72 513
e 72 549
e 73 156
e 73 208
e 73 273
e 73 371
e 73 422
e 73 575
e 74 158
e 74 423
e 74 446
e 75 76
e 75 163
e 76 216
e 76 281
e 76 325
e 77 78
e 77 79
e 77 219
e 77 327
e 77 381
e 78 79
e 78 82
e 78 166
e 78 567
e 79 104
e 79 167
e 79 328
e 80 81
e 80 220
e 80 285
e 80 382
e 80 484
e 82 86
e 82 101
e 82 290
e 82 522
e 83 84
e 83 85
e 83 291
e 83 515
e 83 553
e 84 85
e 84 333
e 85 171
e 86 336
e 87 179
e 87 430
e 87 460
e 88 89
e 88 90
e 88 181
e 88 299
e 88 392
e 88 431
e 89 90
e 89 131
e 89 393
e 89 461
e 90 230
e 90 432
e 91 311
e 91 435
e 92 93
e 92 94
e 92 193
e 92 355
e 92 466
e 92 489
e 93 94
e 93 194
e 93 245
e 93 408
e 93 436
e 94 140
e 94 246
e 94 356
e 95 96
e 95 97
e 95 197
e 95 250
e 95 438
e 95 491
e 96 97
e 96 198
e 96 251
e 96 413
e 97 254
e 97 360
e 98 99
e 98 100
e 98 255
e 98 492
e 98 542
e 99 100
e 99 146
e 99 555
e 100 147
e 100 200
e 101 102
e 101 257
e 101 316
e 101 363
e 101 440
e 101 524
e 101 572
e 102 104
e 102 582
e 103 104
e 103 441
e 103 512
e 104 152
e 104 318
e 104 415
e 105 106
e 105 262
e 105 367
e 105 557
e 106 263
e 106 494
e 106 564
e 107 108
e 107 109
e 107 479
e 108 109
e 108 153
e 109 266
e 110 203
e 110 419
e 111 112
e 111 369
e 111 548
e 112 205
e 112 270
e 112 518
e 113 133
e 113 152
e 113 209
e 113 445
e 114 211
e 114 519
e 115 116
e 115 218
e 115 380
e 116 165
e 117 118
e 117 283
e 117 450
e 118 151
e 118 452
e 118 529
e 119 120
e 119 121
e 119 122
e 119 132
e 119 385
e 119 427
e 119 520
e 120 121
e 120 122
e 120 150
e 120 287
e 120 454
e 121 122
e 121 151
e 121 288
e 121 455
e 122 133
e 122 152
e 122 170
e 122 289
e 122 386
e 122 456
e 123 134
e 123 149
e 123 155
e 123 552
e 124 133
e 124 152
e 124 172
e 124 293
e 124 457
e 125 126
e 125 127
e 125 224
e 125 390
e 125 559
e 126 127
e 126 225
e 127 226
e 127 391
e 127 429
e 127 485
e 127 507
e 128 129
e 128 130
e 128 178
e 128 227
e 128 459
e 129 130
e 129 228
e 129 298
e 130 229
e 130 341
e 130 486
e 130 577
e 131 132
e 131 393
e 131 461
e 132 133
e 132 135
e 132 232
e 133 137
e 133 152
e 134 135
e 134 136
e 134 137
e 134 149
e 134 303
e 134 349
e 134 399
e 135 136
e 135 137
e 135 304
e 135 463
e 136 137
e 136 150
e 136 236
e 136 400
e 136 523
e 136 569
e 137 152
e 137 188
e 137 402
e 138 139
e 138 352
e 139 191
e 139 309
e 139 406
e 139 488
e 140 141
e 140 246
e 140 356
e 141 195
e 142 143
e 142 144
e 142 469
e 143 144
e 143 411
e 143 437
e 143 490
e 143 505
e 144 196
e 144 358
e 144 412
e 144 470
e 145 473
e 146 147
e 146 148
e 146 555
e 147 148
e 147 200
e 148 493
e 149 150
e 149 151
e 149 152
e 149 155
e 149 258
e 149 475
e 150 151
e 150 152
e 150 476
e 150 525
e 151 152
e 151 477
e 151 534
e 152 318
e 152 415
e 153 154
e 154 267
e 154 417
e 154 480
e 154 496
e 154 583
e 156 208
e 156 273
e 156 371
e 156 422
e 156 575
e 157 158
e 157 159
e 158 159
e 158 423
e 158 446
e 159 275
e 159 374
e 160 276
e 160 448
e 161 162
e 161 278
e 162 279
e 162 323
e 163 164
e 163 165
e 164 165
e 164 379
e 166 167
e 166 184
e 166 567
e 167 328
e 168 169
e 168 170
e 168 183
e 168 332
e 168 384
e 168 453
e 168 509
e 169 170
e 170 289
e 170 386
e 170 456
e 171 172
e 172 293
e 172 457
e 173 174
e 173 295
e 173 388
e 174 337
e 174 389
e 174 458
e 174 581
e 175 176
e 175 339
e 176 297
e 177 178
e 177 179
e 177 340
e 178 179
e 178 227
e 178 459
e 179 430
e 179 460
e 180 181
e 180 182
e 180 183
e 180 342
e 181 182
e 181 299
e 181 392
e 181 431
e 182 184
e 182 343
e 182 394
e 183 184
e 183 395
e 183 510
e 184 233
e 185 186
e 185 345
e 186 300
e 186 397
e 186 487
e 187 188
e 187 401
e 188 402
e 189 240
e 189 306
e 190 191
e 190 192
e 191 192
e 191 309
e 191 406
e 191 488
e 192 242
e 192 310
e 192 353
e 192 532
e 193 194
e 193 195
e 193 355
e 193 466
e 193 489
e 194 195
e 194 245
e 194 408
e 194 436
e 196 358
e 196 412
e 196 470
e 197 198
e 197 199
e 197 250
e 197 438
e 197 491
e 198 199
e 198 251
e 198 413
e 199 252
e 199 359
e 199 471
e 200 201
e 201 256
e 201 314
e 201 362
e 201 414
e 202 495
e 202 546
e 203 204
e 203 419
e 204 269
e 205 206
e 205 207
e 205 270
e 205 518
e 206 207
e 206 526
e 207 261
e 207 443
e 208 209
e 208 273
e 208 371
e 208 422
e 208 575
e 209 261
e 209 445
e 210 372
e 210 482
e 211 212
e 211 519
e 212 260
e 212 424
e 212 449
e 212 483
e 213 231
e 213 258
e 213 259
e 213 550
e 214 215
e 214 377
e 215 280
e 215 324
e 215 378
e 215 425
e 215 506
e 216 217
e 216 218
e 216 281
e 216 325
e 217 218
e 217 282
e 217 501
e 218 380
e 219 327
e 219 381
e 220 285
e 220 382
e 220 484
e 221 222
e 221 223
e 222 223
e 222 232
e 222 428
e 222 521
e 223 261
e 223 536
e 223 580
e 224 225
e 224 226
e 224 390
e 224 559
e 225 226
e 226 391
e 226 429
e 226 485
e 226 507
e 227 228
e 227 229
e 227 459
e 228 229
e 228 298
e 229 341
e 229 486
e 229 577
e 230 432
e 231 232
e 231 233
e 231 258
e 231 259
e 231 344
e 232 233
e 233 260
e 234 235
e 234 301
e 234 433
e 234 560
e 235 347
e 235 531
e 236 260
e 236 400
e 236 523
e 236 569
e 237 238
e 237 239
e 237 240
e 237 350
e 237 403
e 237 497
e 237 541
e 238 239
e 238 240
e 238 351
e 238 434
e 238 498
e 239 240
e 239 305
e 239 464
e 239 500
e 240 306
e 241 242
e 241 308
e 242 310
e 242 353
e 242 532
e 243 244
e 243 245
e 243 246
e 243 312
e 243 465
e 244 245
e 244 246
e 244 354
e 244 407
e 245 246
e 245 408
e 245 436
e 246 356
e 247 248
e 247 249
e 247 357
e 247 409
e 247 467
e 248 249
e 248 410
e 248 468
e 248 499
e 250 251
e 250 252
e 250 253
e 250 254
e 250 438
e 250 491
e 251 252
e 251 253
e 251 254
e 251 413
e 252 253
e 252 254
e 252 359
e 252 471
e 253 254
e 253 472
e 253 503
e 253 570
e 254 360
e 255 256
e 255 492
e 255 542
e 256 314
e 256 362
e 256 414
e 257 260
e 257 316
e 257 363
e 257 440
e 257 524
e 257 572
e 258 259
e 258 475
e 259 260
e 259 261
e 259 556
e 260 261
e 260 268
e 260 365
e 261 267
e 261 269
e 262 263
e 262 264
e 262 265
e 262 367
e 262 557
e 263 264
e 263 265
e 263 494
e 263 564
e 264 265
e 264 320
e 264 416
e 264 535
e 265 321
e 266 267
e 267 417
e 267 480
e 267 496
e 267 583
e 268 269
e 268 420
e 268 574
e 270 518
e 271 272
e 271 273
e 271 558
e 272 273
e 272 290
e 272 370
e 273 371
e 273 422
e 273 575
e 274 275
e 274 373
e 274 447
e 275 374
e 276 277
e 276 448
e 277 322
e 277 375
e 277 527
e 278 279
e 278 280
e 279 280
e 279 323
e 280 324
e 280 378
e 280 425
e 280 506
e 281 282
e 281 325
e 282 501
e 283 450
e 284 285
e 284 286
e 284 329
e 284 426
e 285 286
e 285 382
e 285 484
e 286 331
e 287 288
e 287 289
e 287 290
e 287 454
e 288 289
e 288 455
e 289 318
e 289 386
e 289 456
e 290 292
e 290 316
e 290 522
e 291 292
e 291 293
e 291 515
e 291 553
e 292 293
e 292 334
e 292 568
e 293 318
e 293 457
e 294 295
e 294 516
e 294 554
e 295 388
e 296 297
e 296 338
e 296 540
e 299 392
e 299 431
e 300 301
e 300 302
e 300 397
e 300 487
e 301 302
e 301 433
e 301 560
e 302 346
e 303 304
e 303 349
e 303 399
e 304 463
e 305 306
e 305 307
e 305 464
e 305 500
e 306 307
e 307 405
e 308 309
e 308 310
e 308 311
e 309 310
e 309 311
e 309 406
e 309 488
e 310 311
e 310 353
e 310 532
e 311 435
e 312 465
e 313 314
e 313 361
e 313 439
e 313 504
e 313 571
e 314 362
e 314 414
e 315 316
e 315 317
e 315 511
e 315 543
e 316 317
e 316 363
e 316 440
e 316 524
e 316 572
e 317 364
e 317 533
e 318 415
e 319 320
e 319 321
e 319 366
e 319 442
e 319 478
e 319 545
e 320 321
e 320 416
e 320 535
e 322 375
e 322 527
e 323 324
e 323 365
e 324 378
e 324 425
e 324 506
e 326 327
e 326 328
e 326 344
e 326 451
e 326 551
e 327 328
e 327 381
e 329 330
e 329 331
e 329 426
e 330 331
e 330 530
e 330 576
e 332 384
e 332 453
e 332 509
e 333 334
e 334 365
e 334 568
e 335 336
e 335 337
e 335 387
e 336 337
e 336 365
e 337 389
e 337 458
e 337 581
e 338 339
e 338 540
e 340 341
e 341 486
e 341 577
e 342 343
e 343 365
e 343 394
e 344 349
e 345 346
e 345 347
e 345 348
e 346 347
e 346 348
e 346 365
e 347 348
e 347 531
e 348 398
e 348 462
e 349 399
e 350 351
e 350 403
e 350 497
e 350 541
e 351 434
e 351 498
e 352 353
e 353 532
e 354 355
e 354 356
e 354 407
e 355 356
e 355 466
e 355 489
e 357 358
e 357 409
e 357 467
e 358 412
e 358 470
e 359 360
e 359 471
e 361 362
e 361 365
e 361 439
e 361 504
e 361 571
e 362 414
e 363 364
e 363 365
e 363 440
e 363 524
e 363 572
e 364 533
e 365 368
e 366 367
e 366 368
e 366 442
e 366 478
e 366 545
e 367 368
e 367 557
e 368 573
e 369 548
e 370 371
e 371 396
e 371 422
e 371 575
e 372 373
e 372 374
e 372 482
e 373 374
e 373 447
e 375 527
e 376 377
e 376 378
e 377 378
e 378 425
e 378 506
e 379 380
e 382 383
e 382 484
e 384 385
e 384 386
e 384 395
e 384 453
e 384 509
e 385 386
e 385 427
e 385 520
e 386 415
e 386 456
e 387 388
e 387 389
e 388 389
e 388 396
e 389 415
e 389 458
e 389 581
e 390 391
e 390 559
e 391 429
e 391 485
e 391 507
e 392 393
e 392 394
e 392 431
e 393 394
e 393 461
e 395 396
e 395 418
e 395 510
e 396 401
e 396 421
e 396 578
e 397 398
e 397 487
e 398 462
e 399 400
e 399 401
e 399 402
e 400 401
e 400 402
e 400 523
e 400 569
e 401 402
e 402 415
e 403 404
e 403 405
e 403 497
e 403 541
e 404 405
e 404 502
e 406 488
e 407 408
e 408 436
e 409 410
e 409 411
e 409 412
e 409 467
e 410 411
e 410 412
e 410 468
e 410 499
e 411 412
e 411 437
e 411 490
e 411 505
e 412 470
e 416 535
e 417 480
e 417 496
e 417 583
e 418 419
e 418 420
e 418 421
e 418 481
e 418 547
e 419 420
e 419 421
e 420 421
e 420 574
e 422 432
e 422 575
e 423 446
e 424 449
e 424 483
e 425 506
e 427 428
e 427 520
e 428 521
e 429 485
e 429 507
e 430 460
e 431 432
e 433 560
e 434 498
e 437 490
e 437 505
e 438 491
e 439 504
e 439 571
e 440 524
e 440 572
e 441 512
e 442 478
e 442 545
e 443 445
e 443 456
e 443 457
e 443 458
e 444 445
e 444 451
e 444 475
e 444 479
e 444 513
e 444 549
e 445 456
e 445 457
e 445 458
e 445 480
e 446 447
e 446 475
e 447 476
e 448 449
e 448 450
e 448 453
e 448 481
e 449 454
e 449 476
e 449 483
e 450 451
e 450 452
e 450 453
e 450 481
e 451 452
e 451 475
e 451 479
e 451 551
e 452 455
e 452 477
e 452 529
e 453 454
e 453 455
e 453 456
e 453 481
e 453 509
e 454 455
e 454 456
e 454 476
e 455 456
e 455 477
e 456 457
e 456 458
e 456 480
e 457 458
e 457 480
e 458 480
e 458 581
e 459 460
e 461 463
e 461 474
e 463 474
e 464 500
e 465 466
e 466 489
e 467 468
e 467 469
e 467 470
e 468 469
e 468 470
e 468 475
e 468 499
e 469 470
e 471 472
e 471 473
e 472 473
e 472 476
e 472 503
e 472 570
e 473 477
e 474 561
e 475 476
e 475 477
e 475 479
e 476 477
e 476 525
e 477 534
e 478 545
e 479 480
e 480 496
e 480 583
e 481 547
e 483 488
e 485 496
e 485 507
e 486 577
e 490 505
e 491 495
e 492 493
e 492 495
e 492 542
e 493 496
e 494 564
e 495 496
e 495 546
e 496 583
e 497 498
e 497 500
e 497 502
e 497 541
e 498 500
e 498 502
e 499 505
e 500 502
e 503 570
e 504 571
e 508 509
e 508 510
e 508 511
e 508 512
e 508 513
e 508 537
e 509 510
e 509 511
e 509 512
e 509 520
e 510 511
e 510 512
e 511 512
e 511 517
e 511 524
e 511 533
e 511 543
e 512 525
e 512 534
e 513 514
e 513 515
e 513 516
e 513 517
e 513 549
e 514 515
e 514 516
e 514 517
e 514 519
e 514 527
e 515 516
e 515 517
e 515 553
e 516 517
e 516 554
e 517 524
e 517 533
e 518 520
e 518 521
e 518 526
e 519 520
e 519 521
e 519 527
e 520 521
e 521 522
e 521 536
e 522 523
e 522 524
e 522 525
e 522 536
e 523 524
e 523 525
e 523 569
e 524 525
e 524 533
e 524 572
e 525 534
e 526 529
e 526 533
e 526 534
e 527 529
e 527 533
e 527 534
e 528 534
e 529 533
e 529 534
e 530 534
e 530 576
e 531 534
e 532 534
e 533 534
e 534 535
e 536 580
e 537 544
e 537 549
e 537 558
e 537 575
e 538 544
e 538 550
e 538 566
e 539 544
e 539 553
e 539 568
e 540 559
e 542 555
e 542 571
e 543 544
e 543 561
e 543 572
e 543 582
e 544 547
e 544 556
e 544 563
e 544 579
e 545 557
e 545 564
e 545 573
e 546 583
e 547 574
e 548 565
e 549 556
e 549 558
e 549 575
e 550 552
e 550 556
e 550 566
e 551 556
e 551 567
e 552 556
e 552 580
e 553 556
e 553 568
e 554 556
e 554 581
e 555 571
e 556 563
e 556 579
e 557 564
e 557 573
e 558 563
e 558 575
e 561 563
e 561 572
e 561 582
e 562 563
e 563 579
e 564 573
e 572 582
e 575 579
e 578 579
w 1 97
w 2 875
w 3 186
w 4 91
w 5 170
w 6 578
w 7 902
w 8 97
w 9 97
w 10 124
w 11 6
w 12 124
w 13 124
w 14 27
w 15 49
w 16 898
w 17 500
w 18 341
w 19 101
w 20 37
w 21 46
w 22 813
w 23 101
w 24 269
w 25 730
w 26 500
w 27 94
w 28 177
w 29 101
w 30 186
w 31 101
w 32 74
w 33 500
w 34 425
w 35 953
w 36 44
w 37 267
w 38 16
w 39 269
w 40 141
w 41 499
w 42 186
w 43 368
w 44 269
w 45 46
w 46 128
w 47 186
w 48 631
w 49 186
w 50 101
w 51 46
w 52 54
w 53 898
w 54 6
w 55 321
w 56 423
w 57 152
w 58 101
w 59 368
w 60 332
w 61 197
w 62 101
w 63 222
w 64 730
w 65 46
w 66 24
w 67 101
w 68 189
w 69 46
w 70 217
w 71 546
w 72 768
w 73 231
w 74 570
w 75 771
w 76 228
w 77 396
w 78 529
w 79 74
w 80 231
w 81 50
w 82 483
w 83 58
w 84 254
w 85 686
w 86 327
w 87 420
w 88 173
w 89 416
w 90 410
w 91 402
w 92 449
w 93 237
w 94 313
w 95 14
w 96 112
w 97 420
w 98 163
w 99 285
w 100 550
w 101 420
w 102 579
w 103 420
w 104 579
w 105 78
w 106 246
w 107 231
w 108 50
w 109 686
w 110 245
w 111 363
w 112 50
w 113 44
w 114 50
w 115 159
w 116 840
w 117 509
w 118 171
w 119 50
w 120 505
w 121 415
w 122 28
w 123 189
w 124 44
w 125 11
w 126 171
w 127 44
w 128 50
w 129 494
w 130 188
w 131 50
w 132 44
w 133 955
w 134 189
w 135 50
w 136 494
w 137 44
w 138 751
w 139 248
w 140 188
w 141 159
w 142 949
w 143 6
w 144 44
w 145 811
w 146 300
w 147 50
w 148 44
w 149 272
w 150 503
w 151 188
w 152 36
w 153 949
w 154 44
w 155 810
w 156 2
w 157 771
w 158 203
w 159 24
w 160 228
w 161 868
w 162 60
w 163 228
w 164 333
w 165 159
w 166 393
w 167 159
w 168 228
w 169 500
w 170 159
w 171 313
w 172 366
w 173 659
w 174 159
w 175 500
w 176 393
w 177 500
w 178 244
w 179 255
w 180 248
w 181 24
w 182 329
w 183 228
w 184 606
w 185 751
w 186 248
w 187 975
w 188 24
w 189 24
w 190 421
w 191 553
w 192 24
w 193 131
w 194 28
w 195 840
w 196 159
w 197 8
w 198 500
w 199 491
w 200 352
w 201 24
w 202 248
w 203 578
w 204 421
w 205 419
w 206 193
w 207 27
w 208 115
w 209 884
w 210 580
w 211 871
w 212 128
w 213 48
w 214 955
w 215 44
w 216 419
w 217 74
w 218 506
w 219 15
w 220 44
w 221 813
w 222 51
w 223 115
w 224 233
w 225 650
w 226 115
w 227 580
w 228 393
w 229 26
w 230 139
w 231 580
w 232 2
w 233 393
w 234 419
w 235 580
w 236 393
w 237 186
w 238 44
w 239 419
w 240 349
w 241 580
w 242 419
w 243 813
w 244 44
w 245 128
w 246 13
w 247 45
w 248 44
w 249 871
w 250 156
w 251 44
w 252 128
w 253 606
w 254 63
w 255 736
w 256 263
w 257 73
w 258 255
w 259 12
w 260 50
w 261 319
w 262 44
w 263 36
w 264 419
w 265 499
w 266 313
w 267 329
w 268 69
w 269 32
w 270 141
w 271 868
w 272 7
w 273 123
w 274 123
w 275 876
w 276 613
w 277 386
w 278 131
w 279 112
w 280 499
w 281 112
w 282 887
w 283 488
w 284 316
w 285 583
w 286 99
w 287 112
w 288 387
w 289 499
w 290 209
w 291 416
w 292 83
w 293 500
w 294 862
w 295 123
w 296 488
w 297 511
w 298 112
w 299 71
w 300 50
w 301 61
w 302 887
w 303 137
w 304 862
w 305 131
w 306 534
w 307 334
w 308 277
w 309 98
w 310 123
w 311 500
w 312 28
w 313 112
w 314 116
w 315 511
w 316 112
w 317 123
w 318 26
w 319 246
w 320 253
w 321 500
w 322 378
w 323 827
w 324 172
w 325 240
w 326 6
w 327 254
w 328 738
w 329 585
w 330 378
w 331 1
w 332 248
w 333 745
w 334 172
w 335 745
w 336 172
w 337 43
w 338 248
w 339 499
w 340 499
w 341 378
w 342 751
w 343 160
w 344 419
w 345 248
w 346 112
w 347 378
w 348 261
w 349 624
w 350 248
w 351 375
w 352 248
w 353 378
w 354 4
w 355 254
w 356 298
w 357 414
w 358 585
w 359 254
w 360 414
w 361 172
w 362 378
w 363 172
w 364 621
w 365 172
w 366 7
w 367 69
w 368 923
w 369 342
w 370 992
w 371 7
w 372 232
w 373 668
w 374 98
w 375 217
w 376 870
w 377 44
w 378 85
w 379 666
w 380 333
w 381 333
w 382 49
w 383 950
w 384 129
w 385 333
w 386 85
w 387 254
w 388 217
w 389 85
w 390 333
w 391 85
w 392 657
w 393 333
w 394 9
w 395 593
w 396 210
w 397 342
w 398 657
w 399 49
w 400 7
w 401 24
w 402 914
w 403 94
w 404 331
w 405 573
w 406 7
w 407 950
w 408 7
w 409 129
w 410 342
w 411 217
w 412 85
w 413 342
w 414 217
w 415 85
w 416 217
w 417 85
w 418 81
w 419 128
w 420 7
w 421 782
w 422 97
w 423 97
w 424 93
w 425 49
w 426 97
w 427 97
w 428 19
w 429 97
w 430 97
w 431 73
w 432 24
w 433 97
w 434 97
w 435 97
w 436 97
w 437 97
w 438 97
w 439 97
w 440 3
w 441 19
w 442 97
w 443 875
w 444 58
w 445 71
w 446 128
w 447 207
w 448 157
w 449 717
w 450 1
w 451 70
w 452 803
w 453 171
w 454 381
w 455 196
w 456 124
w 457 89
w 458 124
w 459 124
w 460 124
w 461 124
w 462 81
w 463 86
w 464 124
w 465 157
w 466 73
w 467 41
w 468 332
w 469 3
w 470 124
w 471 124
w 472 282
w 473 2
w 474 875
w 475 302
w 476 118
w 477 196
w 478 157
w 479 768
w 480 106
w 481 842
w 482 186
w 483 60
w 484 91
w 485 91
w 486 91
w 487 91
w 488 91
w 489 91
w 490 91
w 491 91
w 492 33
w 493 57
w 494 91
w 495 38
w 496 22
w 497 68
w 498 121
w 499 10
w 500 232
w 501 38
w 502 577
w 503 33
w 504 41
w 505 400
w 506 148
w 507 463
w 508 745
w 509 222
w 510 178
w 511 224
w 512 67
w 513 96
w 514 903
w 515 96
w 516 96
w 517 500
w 518 291
w 519 78
w 520 176
w 521 696
w 522 121
w 523 7
w 524 20
w 525 208
w 526 708
w 527 18
w 528 171
w 529 25
w 530 43
w 531 41
w 532 54
w 533 254
w 534 291
w 535 110
w 536 182
w 537 254
w 538 27
w 539 736
w 540 263
w 541 310
w 542 65
w 543 263
w 544 52
w 545 267
w 546 689
w 547 76
w 548 97
w 549 76
w 550 76
w 551 923
w 552 586
w 553 158
w 554 40
w 555 413
w 556 76
w 557 76
w 558 131
w 559 421
w 560 421
w 561 124
w 562 405
w 563 421
w 564 578
w 565 902
w 566 118
w 567 76
w 568 12
w 569 97
w 570 76
w 571 520
w 572 197
w 573 76
w 574 923
w 575 421
w 576 578
w 577 129
w 578 789
w 579 421
w 580 413
w 581 586
w 582 413
w 583 310
n 1 C12621
n 2 C12625
n 3 C12631
n 4 C12640
n 5 C12647
n 6 C12648
n 7 C5875
n 8 C5876
n 9 C5899
n 10 C5901
n 11 C5902
n 12 C5903
n 13 C5904
n 14 C5922
n 15 C5926
n 16 C5928
n 17 C5930
n 18 C5931
n 19 C5934
n 20 C5936
n 21 C5937
n 22 C5939
n 23 C5940
n 24 C5942
n 25 C5944
n 26 C5950
n 27 C5956
n 28 C5957
n 29 C5958
n 30 C5963
n 31 C5964
n 32 C5967
n 33 C5968
n 34 C5969
n 35 C5973
n 36 C5976
n 37 C5978
n 38 C5988
n 39 C5990
n 40 C5996
n 41 C6004
n 42 C6005
n 43 C6007
n 44 C6008
n 45 C6009
n 46 C6010
n 47 C6011
n 48 C6013
n 49 C6017
n 50 C6018
n 51 C6021
n 52 C6022
n 53 C6024
n 54 C6030
n 55 C6031
n 56 C6033
n 57 C6035
n 58 C6036
n 59 C6037
n 60 C6038
n 61 C6040
n 62 C6042
n 63 C6043
n 64 C6044
n 65 C6045
n 66 C6049
n 67 C6054
n 68 C6056
n 69 C6057
n 70 C6059
n 71 C6060
n 72 C6110
n 73 C6113
n 74 C6116
n 75 C6139
n 76 C6140
n 77 C6147
n 78 C6148
n 79 C6150
n 80 C6152
n 81 C6153
n 82 C6166
n 83 C6170
n 84 C6171
n 85 C6173
n 86 C6178
n 87 C6192
n 88 C6194
n 89 C6195
n 90 C6197
n 91 C6228
n 92 C6231
n 93 C6232
n 94 C6233
n 95 C6241
n 96 C6242
n 97 C6246
n 98 C6247
n 99 C6248
n 100 C6249
n 101 C6256
n 102 C6258
n 103 C6259
n 104 C6264
n 105 C6272
n 106 C6273
n 107 C6278
n 108 C6279
n 109 C6281
n 110 C6285
n 111 C6332
n 112 C6333
n 113 C6342
n 114 C6351
n 115 C6371
n 116 C6372
n 117 C6373
n 118 C6377
n 119 C6387
n 120 C6388
n 121 C6389
n 122 C6390
n 123 C6392
n 124 C6402
n 125 C6411
n 126 C6413
n 127 C6414
n 128 C6417
n 129 C6418
n 130 C6419
n 131 C6423
n 132 C6429
n 133 C6432
n 134 C6440
n 135 C6441
n 136 C6442
n 137 C6444
n 138 C6451
n 139 C6454
n 140 C6461
n 141 C6462
n 142 C6465
n 143 C6467
n 144 C6468
n 145 C6473
n 146 C6476
n 147 C6477
n 148 C6480
n 149 C6488
n 150 C6490
n 151 C6491
n 152 C6492
n 153 C6507
n 154 C6510
n 155 C6512
n 156 C6569
n 157 C6571
n 158 C6572
n 159 C6575
n 160 C6577
n 161 C6591
n 162 C6592
n 163 C6595
n 164 C6597
n 165 C6600
n 166 C6604
n 167 C6606
n 168 C6613
n 169 C6614
n 170 C6618
n 171 C6629
n 172 C6630
n 173 C6635
n 174 C6636
n 175 C6638
n 176 C6640
n 177 C6644
n 178 C6645
n 179 C6648
n 180 C6649
n 181 C6650
n 182 C6652
n 183 C6655
n 184 C6658
n 185 C6661
n 186 C6662
n 187 C6671
n 188 C6672
n 189 C6677
n 190 C6681
n 191 C6682
n 192 C6683
n 193 C6687
n 194 C6688
n 195 C6690
n 196 C6696
n 197 C6697
n 198 C6698
n 199 C6699
n 200 C6705
n 201 C6707
n 202 C6733
n 203 C6741
n 204 C6744
n 205 C6789
n 206 C6791
n 207 C6792
n 208 C6797
n 209 C6798
n 210 C6801
n 211 C6807
n 212 C6808
n 213 C6812
n 214 C6818
n 215 C6822
n 216 C6824
n 217 C6826
n 218 C6827
n 219 C6831
n 220 C6836
n 221 C6847
n 222 C6849
n 223 C6852
n 224 C6867
n 225 C6869
n 226 C6870
n 227 C6873
n 228 C6874
n 229 C6875
n 230 C6881
n 231 C6884
n 232 C6885
n 233 C6886
n 234 C6891
n 235 C6893
n 236 C6898
n 237 C6901
n 238 C6902
n 239 C6903
n 240 C6905
n 241 C6908
n 242 C6911
n 243 C6913
n 244 C6914
n 245 C6916
n 246 C6917
n 247 C6919
n 248 C6920
n 249 C6922
n 250 C6925
n 251 C6926
n 252 C6927
n 253 C6928
n 254 C6930
n 255 C6931
n 256 C6935
n 257 C6940
n 258 C6944
n 259 C6950
n 260 C6952
n 261 C6954
n 262 C6956
n 263 C6957
n 264 C6959
n 265 C6960
n 266 C6965
n 267 C6966
n 268 C6970
n 269 C6972
n 270 C7017
n 271 C7023
n 272 C7024
n 273 C7025
n 274 C7030
n 275 C7031
n 276 C7033
n 277 C7037
n 278 C7047
n 279 C7048
n 280 C7050
n 281 C7052
n 282 C7054
n 283 C7057
n 284 C7063
n 285 C7064
n 286 C7068
n 287 C7072
n 288 C7073
n 289 C7074
n 290 C7078
n 291 C7082
n 292 C7084
n 293 C7086
n 294 C7088
n 295 C7091
n 296 C7093
n 297 C7096
n 298 C7102
n 299 C7106
n 300 C7118
n 301 C7119
n 302 C7120
n 303 C7124
n 304 C7125
n 305 C7131
n 306 C7133
n 307 C7134
n 308 C7136
n 309 C7138
n 310 C7139
n 311 C7140
n 312 C7141
n 313 C7162
n 314 C7163
n 315 C7165
n 316 C7168
n 317 C7169
n 318 C7176
n 319 C7183
n 320 C7187
n 321 C7188
n 322 C7265
n 323 C7276
n 324 C7278
n 325 C7280
n 326 C7286
n 327 C7287
n 328 C7290
n 329 C7291
n 330 C7295
n 331 C7296
n 332 C7297
n 333 C7311
n 334 C7312
n 335 C7317
n 336 C7318
n 337 C7320
n 338 C7321
n 339 C7322
n 340 C7328
n 341 C7331
n 342 C7333
n 343 C7336
n 344 C7340
n 345 C7345
n 346 C7348
n 347 C7349
n 348 C7350
n 349 C7352
n 350 C7357
n 351 C7358
n 352 C7363
n 353 C7367
n 354 C7370
n 355 C7371
n 356 C7373
n 357 C7375
n 358 C7380
n 359 C7383
n 360 C7386
n 361 C7390
n 362 C7391
n 363 C7396
n 364 C7397
n 365 C7408
n 366 C7411
n 367 C7412
n 368 C7414
n 369 C7472
n 370 C7480
n 371 C7481
n 372 C7485
n 373 C7486
n 374 C7487
n 375 C7493
n 376 C7501
n 377 C7502
n 378 C7506
n 379 C7509
n 380 C7511
n 381 C7515
n 382 C7520
n 383 C7522
n 384 C7525
n 385 C7527
n 386 C7530
n 387 C7545
n 388 C7547
n 389 C7548
n 390 C7551
n 391 C7554
n 392 C7562
n 393 C7563
n 394 C7564
n 395 C7567
n 396 C7571
n 397 C7574
n 398 C7578
n 399 C7580
n 400 C7582
n 401 C7583
n 402 C7584
n 403 C7585
n 404 C7588
n 405 C7590
n 406 C7594
n 407 C7598
n 408 C7600
n 409 C7603
n 410 C7604
n 411 C7607
n 412 C7608
n 413 C7610
n 414 C7619
n 415 C7632
n 416 C7643
n 417 C7650
n 418 C7651
n 419 C7653
n 420 C7654
n 421 C7655
n 422 C7709
n 423 C7712
n 424 C7720
n 425 C7734
n 426 C7747
n 427 C7755
n 428 C7761
n 429 C7782
n 430 C7788
n 431 C7790
n 432 C7793
n 433 C7803
n 434 C7814
n 435 C7824
n 436 C7828
n 437 C7835
n 438 C7837
n 439 C7846
n 440 C7852
n 441 C7855
n 442 C7867
n 443 C8574
n 444 C8576
n 445 C8580
n 446 C8582
n 447 C8584
n 448 C8587
n 449 C8590
n 450 C8605
n 451 C8606
n 452 C8609
n 453 C8617
n 454 C8620
n 455 C8621
n 456 C8622
n 457 C8634
n 458 C8640
n 459 C8649
n 460 C8652
n 461 C8655
n 462 C8670
n 463 C8673
n 464 C8679
n 465 C8689
n 466 C8691
n 467 C8695
n 468 C8696
n 469 C8697
n 470 C8700
n 471 C8703
n 472 C8704
n 473 C8705
n 474 C8715
n 475 C8720
n 476 C8722
n 477 C8723
n 478 C8725
n 479 C8732
n 480 C8736
n 481 C8737
n 482 C9843
n 483 C11260
n 484 C11282
n 485 C11310
n 486 C11315
n 487 C11324
n 488 C11338
n 489 C11343
n 490 C11351
n 491 C11353
n 492 C11359
n 493 C11364
n 494 C11373
n 495 C11377
n 496 C11382
n 497 C5311
n 498 C5312
n 499 C5330
n 500 C5313
n 501 C5248
n 502 C5314
n 503 C5338
n 504 C5344
n 505 C5333
n 506 C5244
n 507 C5286
n 508 C5425
n 509 C5473
n 510 C5515
n 511 C5569
n 512 C5575
n 513 C5426
n 514 C5438
n 515 C5486
n 516 C5492
n 517 C5570
n 518 C5421
n 519 C5439
n 520 C5475
n 521 C5481
n 522 C5482
n 523 C5530
n 524 C5572
n 525 C5578
n 526 C5423
n 527 C5441
n 528 C5453
n 529 C5465
n 530 C5471
n 531 C5525
n 532 C5543
n 533 C5573
n 534 C5579
n 535 C5585
n 536 C5484
n 537 C5653
n 538 C5671
n 539 C5713
n 540 C5725
n 541 C5761
n 542 C5791
n 543 C5797
n 544 C5809
n 545 C5815
n 546 C5821
n 547 C5827
n 548 C5648
n 549 C5654
n 550 C5672
n 551 C5690
n 552 C5708
n 553 C5714
n 554 C5720
n 555 C5792
n 556 C5810
n 557 C5816
n 558 C5655
n 559 C5727
n 560 C5751
n 561 C5799
n 562 C5805
n 563 C5811
n 564 C5817
n 565 C5650
n 566 C5674
n 567 C5692
n 568 C5716
n 569 C5758
n 570 C5788
n 571 C5794
n 572 C5800
n 573 C5818
n 574 C5830
n 575 C5657
n 576 C5699
n 577 C5735
n 578 C5747
n 579 C5813
n 580 C5712
n 581 C5724
n 582 C5802
n 583 C5826
o 1 10
o 2 14
o 3 20
o 4 29
o 5 36
o 6 37
o 7 80
o 8 81
o 9 104
o 10 106
o 11 107
o 12 108
o 13 109
o 14 127
o 15 131
o 16 133
o 17 135
o 18 136
o 19 139
o 20 141
o 21 142
o 22 144
o 23 145
o 24 147
o 25 149
o 26 155
o 27 161
o 28 162
o 29 163
o 30 168
o 31 169
o 32 172
o 33 173
o 34 174
o 35 178
o 36 181
o 37 183
o 38 193
o 39 195
o 40 201
o 41 209
o 42 210
o 43 212
o 44 213
o 45 214
o 46 215
o 47 216
o 48 218
o 49 222
o 50 223
o 51 226
o 52 227
o 53 229
o 54 235
o 55 236
o 56 238
o 57 240
o 58 241
o 59 242
o 60 243
o 61 245
o 62 247
o 63 248
o 64 249
o 65 250
o 66 254
o 67 259
o 68 261
o 69 262
o 70 264
o 71 265
o 72 315
o 73 318
o 74 321
o 75 344
o 76 345
o 77 352
o 78 353
o 79 355
o 80 357
o 81 358
o 82 371
o 83 375
o 84 376
o 85 378
o 86 383
o 87 397
o 88 399
o 89 400
o 90 402
o 91 433
o 92 436
o 93 437
o 94 438
o 95 446
o 96 447
o 97 451
o 98 452
o 99 453
o 100 454
o 101 461
o 102 463
o 103 464
o 104 469
o 105 477
o 106 478
o 107 483
o 108 484
o 109 486
o 110 490
o 111 537
o 112 538
o 113 547
o 114 556
o 115 576
o 116 577
o 117 578
o 118 582
o 119 592
o 120 593
o 121 594
o 122 595
o 123 597
o 124 607
o 125 616
o 126 618
o 127 619
o 128 622
o 129 623
o 130 624
o 131 628
o 132 634
o 133 637
o 134 645
o 135 646
o 136 647
o 137 649
o 138 656
o 139 659
o 140 666
o 141 667
o 142 670
o 143 672
o 144 673
o 145 678
o 146 681
o 147 682
o 148 685
o 149 693
o 150 695
o 151 696
o 152 697
o 153 712
o 154 715
o 155 717
o 156 774
o 157 776
o 158 777
o 159 780
o 160 782
o 161 796
o 162 797
o 163 800
o 164 802
o 165 805
o 166 809
o 167 811
o 168 818
o 169 819
o 170 823
o 171 834
o 172 835
o 173 840
o 174 841
o 175 843
o 176 845
o 177 849
o 178 850
o 179 853
o 180 854
o 181 855
o 182 857
o 183 860
o 184 863
o 185 866
o 186 867
o 187 876
o 188 877
o 189 882
o 190 886
o 191 887
o 192 888
o 193 892
o 194 893
o 195 895
o 196 901
o 197 902
o 198 903
o 199 904
o 200 910
o 201 912
o 202 938
o 203 946
o 204 949
o 205 994
o 206 996
o 207 997
o 208 1002
o 209 1003
o 210 1006
o 211 1012
o 212 1013
o 213 1017
o 214 1023
o 215 1027
o 216 1029
o 217 1031
o 218 1032
o 219 1036
o 220 1041
o 221 1052
o 222 1054
o 223 1057
o 224 1072
o 225 1074
o 226 1075
o 227 1078
o 228 1079
o 229 1080
o 230 1086
o 231 1089
o 232 1090
o 233 1091
o 234 1096
o 235 1098
o 236 1103
o 237 1106
o 238 1107
o 239 1108
o 240 1110
o 241 1113
o 242 1116
o 243 1118
o 244 1119
o 245 1121
o 246 1122
o 247 1124
o 248 1125
o 249 1127
o 250 1130
o 251 1131
o 252 1132
o 253 1133
o 254 1135
o 255 1136
o 256 1140
o 257 1145
o 258 1149
o 259 1155
o 260 1157
o 261 1159
o 262 1161
o 263 1162
o 264 1164
o 265 1165
o 266 1170
o 267 1171
o 268 1175
o 269 1177
o 270 1222
o 271 1228
o 272 1229
o 273 1230
o 274 1235
o 275 1236
o 276 1238
o 277 1242
o 278 1252
o 279 1253
o 280 1255
o 281 1257
o 282 1259
o 283 1262
o 284 1268
o 285 1269
o 286 1273
o 287 1277
o 288 1278
o 289 1279
o 290 1283
o 291 1287
o 292 1289
o 293 1291
o 294 1293
o 295 1296
o 296 1298
o 297 1301
o 298 1307
o 299 1311
o 300 1323
o 301 1324
o 302 1325
o 303 1329
o 304 1330
o 305 1336
o 306 1338
o 307 1339
o 308 1341
o 309 1343
o 310 1344
o 311 1345
o 312 1346
o 313 1367
o 314 1368
o 315 1370
o 316 1373
o 317 1374
o 318 1381
o 319 1388
o 320 1392
o 321 1393
o 322 1470
o 323 1481
o 324 1483
o 325 1485
o 326 1491
o 327 1492
o 328 1495
o 329 1496
o 330 1500
o 331 1501
o 332 1502
o 333 1516
o 334 1517
o 335 1522
o 336 1523
o 337 1525
o 338 1526
o 339 1527
o 340 1533
o 341 1536
o 342 1538
o 343 1541
o 344 1545
o 345 1550
o 346 1553
o 347 1554
o 348 1555
o 349 1557
o 350 1562
o 351 1563
o 352 1568
o 353 1572
o 354 1575
o 355 1576
o 356 1578
o 357 1580
o 358 1585
o 359 1588
o 360 1591
o 361 1595
o 362 1596
o 363 1601
o 364 1602
o 365 1613
o 366 1616
o 367 1617
o 368 1619
o 369 1677
o 370 1685
o 371 1686
o 372 1690
o 373 1691
o 374 1692
o 375 1698
o 376 1706
o 377 1707
o 378 1711
o 379 1714
o 380 1716
o 381 1720
o 382 1725
o 383 1727
o 384 1730
o 385 1732
o 386 1735
o 387 1750
o 388 1752
o 389 1753
o 390 1756
o 391 1759
o 392 1767
o 393 1768
o 394 1769
o 395 1772
o 396 1776
o 397 1779
o 398 1783
o 399 1785
o 400 1787
o 401 1788
o 402 1789
o 403 1790
o 404 1793
o 405 1795
o 406 1799
o 407 1803
o 408 1805
o 409 1808
o 410 1809
o 411 1812
o 412 1813
o 413 1815
o 414 1824
o 415 1837
o 416 1848
o 417 1855
o 418 1856
o 419 1858
o 420 1859
o 421 1860
o 422 1914
o 423 1917
o 424 1925
o 425 1939
o 426 1952
o 427 1960
o 428 1966
o 429 1987
o 430 1993
o 431 1995
o 432 1998
o 433 2008
o 434 2019
o 435 2029
o 436 2033
o 437 2040
o 438 2042
o 439 2051
o 440 2057
o 441 2060
o 442 2072
o 443 2779
o 444 2781
o 445 2785
o 446 2787
o 447 2789
o 448 2792
o 449 2795
o 450 2810
o 451 2811
o 452 2814
o 453 2822
o 454 2825
o 455 2826
o 456 2827
o 457 2839
o 458 2845
o 459 2854
o 460 2857
o 461 2860
o 462 2875
o 463 2878
o 464 2884
o 465 2894
o 466 2896
o 467 2900
o 468 2901
o 469 2902
o 470 2905
o 471 2908
o 472 2909
o 473 2910
o 474 2920
o 475 2925
o 476 2927
o 477 2928
o 478 2930
o 479 2937
o 480 2941
o 481 2942
o 482 4048
o 483 5465
o 484 5487
o 485 5515
o 486 5520
o 487 5529
o 488 5543
o 489 5548
o 490 5556
o 491 5558
o 492 5564
o 493 5569
o 494 5578
o 495 5582
o 496 5587
o 497 6842
o 498 6876
o 499 6879
o 500 6910
o 501 6933
o 502 6944
o 503 6948
o 504 6949
o 505 6981
o 506 7000
o 507 7007
o 508 7031
o 509 7039
o 510 7046
o 511 7055
o 512 7056
o 513 7069
o 514 7071
o 515 7079
o 516 7080
o 517 7093
o 518 7106
o 519 7109
o 520 7115
o 521 7116
o 522 7154
o 523 7162
o 524 7169
o 525 7170
o 526 7182
o 527 7185
o 528 7187
o 529 7189
o 530 7190
o 531 7199
o 532 7202
o 533 7207
o 534 7208
o 535 7209
o 536 7230
o 537 7259
o 538 7262
o 539 7269
o 540 7271
o 541 7277
o 542 7282
o 543 7283
o 544 7285
o 545 7286
o 546 7287
o 547 7288
o 548 7297
o 549 7298
o 550 7301
o 551 7304
o 552 7307
o 553 7308
o 554 7309
o 555 7321
o 556 7324
o 557 7325
o 558 7337
o 559 7349
o 560 7353
o 561 7361
o 562 7362
o 563 7363
o 564 7364
o 565 7375
o 566 7379
o 567 7382
o 568 7386
o 569 7393
o 570 7398
o 571 7399
o 572 7400
o 573 7403
o 574 7405
o 575 7415
o 576 7422
o 577 7428
o 578 7430
o 579 7441
o 580 7463
o 581 7465
o 582 7478
o 583 7482
